* LP written by GAMS Convert at 12/20/23 12:32:58
*
* Equation counts
*     Total        E        G        L        N        X        C        B
*        73        1       72        0        0        0        0        0
*
* Variable counts
*                  x        b        i      s1s      s2s       sc       si
*     Total     cont   binary  integer     sos1     sos2    scont     sint
*       307      307        0        0        0        0        0        0
* FX      0
*
* Nonzero counts
*     Total    const       NL
*       851      851        0

NAME          Convert
*
* original model was minimizing
*
ROWS
 N  obj
 G  e1
 G  e2
 G  e3
 G  e4
 G  e5
 G  e6
 G  e7
 G  e8
 G  e9
 G  e10
 G  e11
 G  e12
 G  e13
 G  e14
 G  e15
 G  e16
 G  e17
 G  e18
 G  e19
 G  e20
 G  e21
 G  e22
 G  e23
 G  e24
 G  e25
 G  e26
 G  e27
 G  e28
 G  e29
 G  e30
 G  e31
 G  e32
 G  e33
 G  e34
 G  e35
 G  e36
 G  e37
 G  e38
 G  e39
 G  e40
 G  e41
 G  e42
 G  e43
 G  e44
 G  e45
 G  e46
 G  e47
 G  e48
 G  e49
 G  e50
 G  e51
 G  e52
 G  e53
 G  e54
 G  e55
 G  e56
 G  e57
 G  e58
 G  e59
 G  e60
 G  e61
 G  e62
 G  e63
 G  e64
 G  e65
 G  e66
 G  e67
 G  e68
 G  e69
 G  e70
 G  e71
 G  e72
 E  e73
COLUMNS
    x1        e1                   1
    x1        e73                -58
    x2        e8                   1
    x2        e73                -25
    x3        e1                  -1
    x3        e73                -58
    x4        e1                  -1
    x4        e3                   1
    x4        e73                -29
    x5        e1                  -1
    x5        e5                   1
    x5        e73                -32
    x6        e1                  -1
    x6        e6                   1
    x6        e73               -130
    x7        e1                  -1
    x7        e7                   1
    x7        e73                -85
    x8        e2                  -1
    x8        e3                   1
    x8        e73                -29
    x9        e2                  -1
    x9        e4                   1
    x9        e73                -85
    x10       e2                  -1
    x10       e5                   1
    x10       e73                -28
    x11       e2                  -1
    x11       e7                   1
    x11       e73                -75
    x12       e1                   1
    x12       e3                  -1
    x12       e73                -29
    x13       e2                   1
    x13       e3                  -1
    x13       e73                -29
    x14       e3                  -1
    x14       e5                   1
    x14       e73                -27
    x15       e3                  -1
    x15       e7                   1
    x15       e73                -66
    x16       e3                  -1
    x16       e8                   1
    x16       e73                -62
    x17       e2                   1
    x17       e4                  -1
    x17       e73                -85
    x18       e4                  -1
    x18       e6                   1
    x18       e73                -58
    x19       e4                  -1
    x19       e7                   1
    x19       e73                -43
    x20       e1                   1
    x20       e5                  -1
    x20       e73                -32
    x21       e2                   1
    x21       e5                  -1
    x21       e73                -28
    x22       e3                   1
    x22       e5                  -1
    x22       e73                -27
    x23       e5                  -1
    x23       e8                   1
    x23       e73                -53
    x24       e1                   1
    x24       e6                  -1
    x24       e73               -130
    x25       e4                   1
    x25       e6                  -1
    x25       e73                -58
    x26       e6                  -1
    x26       e7                   1
    x26       e73                -48
    x27       e1                   1
    x27       e7                  -1
    x27       e73                -85
    x28       e2                   1
    x28       e7                  -1
    x28       e73                -75
    x29       e3                   1
    x29       e7                  -1
    x29       e73                -66
    x30       e4                   1
    x30       e7                  -1
    x30       e73                -43
    x31       e6                   1
    x31       e7                  -1
    x31       e73                -48
    x32       e8                  -1
    x32       e73                -25
    x33       e3                   1
    x33       e8                  -1
    x33       e73                -62
    x34       e5                   1
    x34       e8                  -1
    x34       e73                -53
    x35       e9                  -1
    x35       e73                -58
    x36       e9                  -1
    x36       e16                  1
    x36       e73                -25
    x37       e9                   1
    x37       e73                -58
    x38       e11                  1
    x38       e73                -29
    x39       e13                  1
    x39       e73                -32
    x40       e14                  1
    x40       e73               -130
    x41       e15                  1
    x41       e73                -85
    x42       e10                 -1
    x42       e11                  1
    x42       e73                -29
    x43       e10                 -1
    x43       e12                  1
    x43       e73                -85
    x44       e10                 -1
    x44       e13                  1
    x44       e73                -28
    x45       e10                 -1
    x45       e15                  1
    x45       e73                -75
    x46       e11                 -1
    x46       e73                -29
    x47       e10                  1
    x47       e11                 -1
    x47       e73                -29
    x48       e11                 -1
    x48       e13                  1
    x48       e73                -27
    x49       e11                 -1
    x49       e15                  1
    x49       e73                -66
    x50       e11                 -1
    x50       e16                  1
    x50       e73                -62
    x51       e10                  1
    x51       e12                 -1
    x51       e73                -85
    x52       e12                 -1
    x52       e14                  1
    x52       e73                -58
    x53       e12                 -1
    x53       e15                  1
    x53       e73                -43
    x54       e13                 -1
    x54       e73                -32
    x55       e10                  1
    x55       e13                 -1
    x55       e73                -28
    x56       e11                  1
    x56       e13                 -1
    x56       e73                -27
    x57       e13                 -1
    x57       e16                  1
    x57       e73                -53
    x58       e14                 -1
    x58       e73               -130
    x59       e12                  1
    x59       e14                 -1
    x59       e73                -58
    x60       e14                 -1
    x60       e15                  1
    x60       e73                -48
    x61       e15                 -1
    x61       e73                -85
    x62       e10                  1
    x62       e15                 -1
    x62       e73                -75
    x63       e11                  1
    x63       e15                 -1
    x63       e73                -66
    x64       e12                  1
    x64       e15                 -1
    x64       e73                -43
    x65       e14                  1
    x65       e15                 -1
    x65       e73                -48
    x66       e9                   1
    x66       e16                 -1
    x66       e73                -25
    x67       e11                  1
    x67       e16                 -1
    x67       e73                -62
    x68       e13                  1
    x68       e16                 -1
    x68       e73                -53
    x69       e17                 -1
    x69       e18                  1
    x69       e73                -58
    x70       e17                 -1
    x70       e24                  1
    x70       e73                -25
    x71       e17                  1
    x71       e18                 -1
    x71       e73                -58
    x72       e18                 -1
    x72       e19                  1
    x72       e73                -29
    x73       e18                 -1
    x73       e21                  1
    x73       e73                -32
    x74       e18                 -1
    x74       e22                  1
    x74       e73               -130
    x75       e18                 -1
    x75       e23                  1
    x75       e73                -85
    x76       e19                  1
    x76       e73                -29
    x77       e20                  1
    x77       e73                -85
    x78       e21                  1
    x78       e73                -28
    x79       e23                  1
    x79       e73                -75
    x80       e18                  1
    x80       e19                 -1
    x80       e73                -29
    x81       e19                 -1
    x81       e73                -29
    x82       e19                 -1
    x82       e21                  1
    x82       e73                -27
    x83       e19                 -1
    x83       e23                  1
    x83       e73                -66
    x84       e19                 -1
    x84       e24                  1
    x84       e73                -62
    x85       e20                 -1
    x85       e73                -85
    x86       e20                 -1
    x86       e22                  1
    x86       e73                -58
    x87       e20                 -1
    x87       e23                  1
    x87       e73                -43
    x88       e18                  1
    x88       e21                 -1
    x88       e73                -32
    x89       e21                 -1
    x89       e73                -28
    x90       e19                  1
    x90       e21                 -1
    x90       e73                -27
    x91       e21                 -1
    x91       e24                  1
    x91       e73                -53
    x92       e18                  1
    x92       e22                 -1
    x92       e73               -130
    x93       e20                  1
    x93       e22                 -1
    x93       e73                -58
    x94       e22                 -1
    x94       e23                  1
    x94       e73                -48
    x95       e18                  1
    x95       e23                 -1
    x95       e73                -85
    x96       e23                 -1
    x96       e73                -75
    x97       e19                  1
    x97       e23                 -1
    x97       e73                -66
    x98       e20                  1
    x98       e23                 -1
    x98       e73                -43
    x99       e22                  1
    x99       e23                 -1
    x99       e73                -48
    x100      e17                  1
    x100      e24                 -1
    x100      e73                -25
    x101      e19                  1
    x101      e24                 -1
    x101      e73                -62
    x102      e21                  1
    x102      e24                 -1
    x102      e73                -53
    x103      e25                 -1
    x103      e26                  1
    x103      e73                -58
    x104      e25                 -1
    x104      e32                  1
    x104      e73                -25
    x105      e25                  1
    x105      e26                 -1
    x105      e73                -58
    x106      e26                 -1
    x106      e73                -29
    x107      e26                 -1
    x107      e29                  1
    x107      e73                -32
    x108      e26                 -1
    x108      e30                  1
    x108      e73               -130
    x109      e26                 -1
    x109      e31                  1
    x109      e73                -85
    x110      e27                 -1
    x110      e73                -29
    x111      e27                 -1
    x111      e28                  1
    x111      e73                -85
    x112      e27                 -1
    x112      e29                  1
    x112      e73                -28
    x113      e27                 -1
    x113      e31                  1
    x113      e73                -75
    x114      e26                  1
    x114      e73                -29
    x115      e27                  1
    x115      e73                -29
    x116      e29                  1
    x116      e73                -27
    x117      e31                  1
    x117      e73                -66
    x118      e32                  1
    x118      e73                -62
    x119      e27                  1
    x119      e28                 -1
    x119      e73                -85
    x120      e28                 -1
    x120      e30                  1
    x120      e73                -58
    x121      e28                 -1
    x121      e31                  1
    x121      e73                -43
    x122      e26                  1
    x122      e29                 -1
    x122      e73                -32
    x123      e27                  1
    x123      e29                 -1
    x123      e73                -28
    x124      e29                 -1
    x124      e73                -27
    x125      e29                 -1
    x125      e32                  1
    x125      e73                -53
    x126      e26                  1
    x126      e30                 -1
    x126      e73               -130
    x127      e28                  1
    x127      e30                 -1
    x127      e73                -58
    x128      e30                 -1
    x128      e31                  1
    x128      e73                -48
    x129      e26                  1
    x129      e31                 -1
    x129      e73                -85
    x130      e27                  1
    x130      e31                 -1
    x130      e73                -75
    x131      e31                 -1
    x131      e73                -66
    x132      e28                  1
    x132      e31                 -1
    x132      e73                -43
    x133      e30                  1
    x133      e31                 -1
    x133      e73                -48
    x134      e25                  1
    x134      e32                 -1
    x134      e73                -25
    x135      e32                 -1
    x135      e73                -62
    x136      e29                  1
    x136      e32                 -1
    x136      e73                -53
    x137      e33                 -1
    x137      e34                  1
    x137      e73                -58
    x138      e33                 -1
    x138      e40                  1
    x138      e73                -25
    x139      e33                  1
    x139      e34                 -1
    x139      e73                -58
    x140      e34                 -1
    x140      e36                  1
    x140      e73                -29
    x141      e34                 -1
    x141      e37                  1
    x141      e73                -32
    x142      e34                 -1
    x142      e38                  1
    x142      e73               -130
    x143      e34                 -1
    x143      e39                  1
    x143      e73                -85
    x144      e35                 -1
    x144      e36                  1
    x144      e73                -29
    x145      e35                 -1
    x145      e73                -85
    x146      e35                 -1
    x146      e37                  1
    x146      e73                -28
    x147      e35                 -1
    x147      e39                  1
    x147      e73                -75
    x148      e34                  1
    x148      e36                 -1
    x148      e73                -29
    x149      e35                  1
    x149      e36                 -1
    x149      e73                -29
    x150      e36                 -1
    x150      e37                  1
    x150      e73                -27
    x151      e36                 -1
    x151      e39                  1
    x151      e73                -66
    x152      e36                 -1
    x152      e40                  1
    x152      e73                -62
    x153      e35                  1
    x153      e73                -85
    x154      e38                  1
    x154      e73                -58
    x155      e39                  1
    x155      e73                -43
    x156      e34                  1
    x156      e37                 -1
    x156      e73                -32
    x157      e35                  1
    x157      e37                 -1
    x157      e73                -28
    x158      e36                  1
    x158      e37                 -1
    x158      e73                -27
    x159      e37                 -1
    x159      e40                  1
    x159      e73                -53
    x160      e34                  1
    x160      e38                 -1
    x160      e73               -130
    x161      e38                 -1
    x161      e73                -58
    x162      e38                 -1
    x162      e39                  1
    x162      e73                -48
    x163      e34                  1
    x163      e39                 -1
    x163      e73                -85
    x164      e35                  1
    x164      e39                 -1
    x164      e73                -75
    x165      e36                  1
    x165      e39                 -1
    x165      e73                -66
    x166      e39                 -1
    x166      e73                -43
    x167      e38                  1
    x167      e39                 -1
    x167      e73                -48
    x168      e33                  1
    x168      e40                 -1
    x168      e73                -25
    x169      e36                  1
    x169      e40                 -1
    x169      e73                -62
    x170      e37                  1
    x170      e40                 -1
    x170      e73                -53
    x171      e41                 -1
    x171      e42                  1
    x171      e73                -58
    x172      e41                 -1
    x172      e48                  1
    x172      e73                -25
    x173      e41                  1
    x173      e42                 -1
    x173      e73                -58
    x174      e42                 -1
    x174      e44                  1
    x174      e73                -29
    x175      e42                 -1
    x175      e73                -32
    x176      e42                 -1
    x176      e46                  1
    x176      e73               -130
    x177      e42                 -1
    x177      e47                  1
    x177      e73                -85
    x178      e43                 -1
    x178      e44                  1
    x178      e73                -29
    x179      e43                 -1
    x179      e45                  1
    x179      e73                -85
    x180      e43                 -1
    x180      e73                -28
    x181      e43                 -1
    x181      e47                  1
    x181      e73                -75
    x182      e42                  1
    x182      e44                 -1
    x182      e73                -29
    x183      e43                  1
    x183      e44                 -1
    x183      e73                -29
    x184      e44                 -1
    x184      e73                -27
    x185      e44                 -1
    x185      e47                  1
    x185      e73                -66
    x186      e44                 -1
    x186      e48                  1
    x186      e73                -62
    x187      e43                  1
    x187      e45                 -1
    x187      e73                -85
    x188      e45                 -1
    x188      e46                  1
    x188      e73                -58
    x189      e45                 -1
    x189      e47                  1
    x189      e73                -43
    x190      e42                  1
    x190      e73                -32
    x191      e43                  1
    x191      e73                -28
    x192      e44                  1
    x192      e73                -27
    x193      e48                  1
    x193      e73                -53
    x194      e42                  1
    x194      e46                 -1
    x194      e73               -130
    x195      e45                  1
    x195      e46                 -1
    x195      e73                -58
    x196      e46                 -1
    x196      e47                  1
    x196      e73                -48
    x197      e42                  1
    x197      e47                 -1
    x197      e73                -85
    x198      e43                  1
    x198      e47                 -1
    x198      e73                -75
    x199      e44                  1
    x199      e47                 -1
    x199      e73                -66
    x200      e45                  1
    x200      e47                 -1
    x200      e73                -43
    x201      e46                  1
    x201      e47                 -1
    x201      e73                -48
    x202      e41                  1
    x202      e48                 -1
    x202      e73                -25
    x203      e44                  1
    x203      e48                 -1
    x203      e73                -62
    x204      e48                 -1
    x204      e73                -53
    x205      e49                 -1
    x205      e50                  1
    x205      e73                -58
    x206      e49                 -1
    x206      e56                  1
    x206      e73                -25
    x207      e49                  1
    x207      e50                 -1
    x207      e73                -58
    x208      e50                 -1
    x208      e52                  1
    x208      e73                -29
    x209      e50                 -1
    x209      e54                  1
    x209      e73                -32
    x210      e50                 -1
    x210      e73               -130
    x211      e50                 -1
    x211      e55                  1
    x211      e73                -85
    x212      e51                 -1
    x212      e52                  1
    x212      e73                -29
    x213      e51                 -1
    x213      e53                  1
    x213      e73                -85
    x214      e51                 -1
    x214      e54                  1
    x214      e73                -28
    x215      e51                 -1
    x215      e55                  1
    x215      e73                -75
    x216      e50                  1
    x216      e52                 -1
    x216      e73                -29
    x217      e51                  1
    x217      e52                 -1
    x217      e73                -29
    x218      e52                 -1
    x218      e54                  1
    x218      e73                -27
    x219      e52                 -1
    x219      e55                  1
    x219      e73                -66
    x220      e52                 -1
    x220      e56                  1
    x220      e73                -62
    x221      e51                  1
    x221      e53                 -1
    x221      e73                -85
    x222      e53                 -1
    x222      e73                -58
    x223      e53                 -1
    x223      e55                  1
    x223      e73                -43
    x224      e50                  1
    x224      e54                 -1
    x224      e73                -32
    x225      e51                  1
    x225      e54                 -1
    x225      e73                -28
    x226      e52                  1
    x226      e54                 -1
    x226      e73                -27
    x227      e54                 -1
    x227      e56                  1
    x227      e73                -53
    x228      e50                  1
    x228      e73               -130
    x229      e53                  1
    x229      e73                -58
    x230      e55                  1
    x230      e73                -48
    x231      e50                  1
    x231      e55                 -1
    x231      e73                -85
    x232      e51                  1
    x232      e55                 -1
    x232      e73                -75
    x233      e52                  1
    x233      e55                 -1
    x233      e73                -66
    x234      e53                  1
    x234      e55                 -1
    x234      e73                -43
    x235      e55                 -1
    x235      e73                -48
    x236      e49                  1
    x236      e56                 -1
    x236      e73                -25
    x237      e52                  1
    x237      e56                 -1
    x237      e73                -62
    x238      e54                  1
    x238      e56                 -1
    x238      e73                -53
    x239      e57                 -1
    x239      e58                  1
    x239      e73                -58
    x240      e57                 -1
    x240      e64                  1
    x240      e73                -25
    x241      e57                  1
    x241      e58                 -1
    x241      e73                -58
    x242      e58                 -1
    x242      e60                  1
    x242      e73                -29
    x243      e58                 -1
    x243      e62                  1
    x243      e73                -32
    x244      e58                 -1
    x244      e63                  1
    x244      e73               -130
    x245      e58                 -1
    x245      e73                -85
    x246      e59                 -1
    x246      e60                  1
    x246      e73                -29
    x247      e59                 -1
    x247      e61                  1
    x247      e73                -85
    x248      e59                 -1
    x248      e62                  1
    x248      e73                -28
    x249      e59                 -1
    x249      e73                -75
    x250      e58                  1
    x250      e60                 -1
    x250      e73                -29
    x251      e59                  1
    x251      e60                 -1
    x251      e73                -29
    x252      e60                 -1
    x252      e62                  1
    x252      e73                -27
    x253      e60                 -1
    x253      e73                -66
    x254      e60                 -1
    x254      e64                  1
    x254      e73                -62
    x255      e59                  1
    x255      e61                 -1
    x255      e73                -85
    x256      e61                 -1
    x256      e63                  1
    x256      e73                -58
    x257      e61                 -1
    x257      e73                -43
    x258      e58                  1
    x258      e62                 -1
    x258      e73                -32
    x259      e59                  1
    x259      e62                 -1
    x259      e73                -28
    x260      e60                  1
    x260      e62                 -1
    x260      e73                -27
    x261      e62                 -1
    x261      e64                  1
    x261      e73                -53
    x262      e58                  1
    x262      e63                 -1
    x262      e73               -130
    x263      e61                  1
    x263      e63                 -1
    x263      e73                -58
    x264      e63                 -1
    x264      e73                -48
    x265      e58                  1
    x265      e73                -85
    x266      e59                  1
    x266      e73                -75
    x267      e60                  1
    x267      e73                -66
    x268      e61                  1
    x268      e73                -43
    x269      e63                  1
    x269      e73                -48
    x270      e57                  1
    x270      e64                 -1
    x270      e73                -25
    x271      e60                  1
    x271      e64                 -1
    x271      e73                -62
    x272      e62                  1
    x272      e64                 -1
    x272      e73                -53
    x273      e65                 -1
    x273      e66                  1
    x273      e73                -58
    x274      e65                 -1
    x274      e73                -25
    x275      e65                  1
    x275      e66                 -1
    x275      e73                -58
    x276      e66                 -1
    x276      e68                  1
    x276      e73                -29
    x277      e66                 -1
    x277      e70                  1
    x277      e73                -32
    x278      e66                 -1
    x278      e71                  1
    x278      e73               -130
    x279      e66                 -1
    x279      e72                  1
    x279      e73                -85
    x280      e67                 -1
    x280      e68                  1
    x280      e73                -29
    x281      e67                 -1
    x281      e69                  1
    x281      e73                -85
    x282      e67                 -1
    x282      e70                  1
    x282      e73                -28
    x283      e67                 -1
    x283      e72                  1
    x283      e73                -75
    x284      e66                  1
    x284      e68                 -1
    x284      e73                -29
    x285      e67                  1
    x285      e68                 -1
    x285      e73                -29
    x286      e68                 -1
    x286      e70                  1
    x286      e73                -27
    x287      e68                 -1
    x287      e72                  1
    x287      e73                -66
    x288      e68                 -1
    x288      e73                -62
    x289      e67                  1
    x289      e69                 -1
    x289      e73                -85
    x290      e69                 -1
    x290      e71                  1
    x290      e73                -58
    x291      e69                 -1
    x291      e72                  1
    x291      e73                -43
    x292      e66                  1
    x292      e70                 -1
    x292      e73                -32
    x293      e67                  1
    x293      e70                 -1
    x293      e73                -28
    x294      e68                  1
    x294      e70                 -1
    x294      e73                -27
    x295      e70                 -1
    x295      e73                -53
    x296      e66                  1
    x296      e71                 -1
    x296      e73               -130
    x297      e69                  1
    x297      e71                 -1
    x297      e73                -58
    x298      e71                 -1
    x298      e72                  1
    x298      e73                -48
    x299      e66                  1
    x299      e72                 -1
    x299      e73                -85
    x300      e67                  1
    x300      e72                 -1
    x300      e73                -75
    x301      e68                  1
    x301      e72                 -1
    x301      e73                -66
    x302      e69                  1
    x302      e72                 -1
    x302      e73                -43
    x303      e71                  1
    x303      e72                 -1
    x303      e73                -48
    x304      e65                  1
    x304      e73                -25
    x305      e68                  1
    x305      e73                -62
    x306      e70                  1
    x306      e73                -53
    x307      obj                  1
    x307      e73                  1
RHS
    rhs       e1                   1
    rhs       e2                   1
    rhs       e3                   1
    rhs       e4                   1
    rhs       e5                   1
    rhs       e6                   1
    rhs       e7                   1
    rhs       e8                   1
    rhs       e9                   1
    rhs       e10                  1
    rhs       e11                  1
    rhs       e12                  1
    rhs       e13                  1
    rhs       e14                  1
    rhs       e15                  1
    rhs       e16                  1
    rhs       e17                  1
    rhs       e18                  1
    rhs       e19                  1
    rhs       e20                  1
    rhs       e21                  1
    rhs       e22                  1
    rhs       e23                  1
    rhs       e24                  1
    rhs       e25                  1
    rhs       e26                  1
    rhs       e27                  1
    rhs       e28                  1
    rhs       e29                  1
    rhs       e30                  1
    rhs       e31                  1
    rhs       e32                  1
    rhs       e33                  1
    rhs       e34                  1
    rhs       e35                  1
    rhs       e36                  1
    rhs       e37                  1
    rhs       e38                  1
    rhs       e39                  1
    rhs       e40                  1
    rhs       e41                  1
    rhs       e42                  1
    rhs       e43                  1
    rhs       e44                  1
    rhs       e45                  1
    rhs       e46                  1
    rhs       e47                  1
    rhs       e48                  1
    rhs       e49                  1
    rhs       e50                  1
    rhs       e51                  1
    rhs       e52                  1
    rhs       e53                  1
    rhs       e54                  1
    rhs       e55                  1
    rhs       e56                  1
    rhs       e57                  1
    rhs       e58                  1
    rhs       e59                  1
    rhs       e60                  1
    rhs       e61                  1
    rhs       e62                  1
    rhs       e63                  1
    rhs       e64                  1
    rhs       e65                  1
    rhs       e66                  1
    rhs       e67                  1
    rhs       e68                  1
    rhs       e69                  1
    rhs       e70                  1
    rhs       e71                  1
    rhs       e72                  1
BOUNDS
 FR bnd       x307
ENDATA
